24	3	3
5	7	7	91	72	65	
0	0	0	0	2	3	2	3	7	2	22	2	3	4	5	6	7	8	9	10	11	12	13	14	15	16	17	18	19	20	21	22	23
2	1	1	1	2	3	10	1	2	2	1	24
3	1	1	1	5	7	10	2	7	1	1	6
2	1	2	1	4	5	5	3	3	10	1	24
169	1	2	2	6	2	1	5	9	8	1	18
3	2	1	2	4	10	1	6	3	7	1	24
1	2	1	1	7	4	9	7	4	1	1	15
226	3	1	2	8	9	7	7	10	4	1	24
115	2	2	2	8	3	9	2	6	1	1	21
166	2	2	1	2	2	3	2	6	1	1	24
208	2	1	2	9	10	1	10	5	3	1	17
113	1	1	1	6	2	6	5	9	10	1	24
169	3	2	2	6	6	8	3	3	7	1	24
156	3	1	1	6	1	10	4	3	6	1	24
4	3	2	1	5	4	7	7	5	3	1	19
5	3	1	2	8	4	3	8	3	7	1	21
3	3	2	2	1	9	9	7	4	7	1	24
166	2	2	2	6	9	3	3	1	6	1	24
2	3	1	1	9	7	6	9	10	8	1	24
150	3	1	2	4	4	1	1	1	5	1	24
6	3	2	2	3	8	9	6	5	1	1	24
208	5	1	2	2	5	10	1	1	3	1	24
5	4	2	2	8	7	1	10	9	2	1	24
0	0	0	0	5	8	8	1	6	8	0
